

******************************************************************************
This program contains Ipopt, a library for large-scale nonlinear optimization.
 Ipopt is released as open source code under the Eclipse Public License (EPL).
         For more information visit https://github.com/coin-or/Ipopt
******************************************************************************

This is Ipopt version 3.14.11, running with linear solver MUMPS 5.5.1.

Number of nonzeros in equality constraint Jacobian...:        0
Number of nonzeros in inequality constraint Jacobian.:        0
Number of nonzeros in Lagrangian Hessian.............:      146

Total number of variables............................:       36
                     variables with only lower bounds:        0
                variables with lower and upper bounds:        0
                     variables with only upper bounds:        0
Total number of equality constraints.................:        0
Total number of inequality constraints...............:        0
        inequality constraints with only lower bounds:        0
   inequality constraints with lower and upper bounds:        0
        inequality constraints with only upper bounds:        0

iter    objective    inf_pr   inf_du lg(mu)  ||d||  lg(rg) alpha_du alpha_pr  ls
   0  3.8085789e+00 0.00e+00 2.40e-01  -1.0 0.00e+00    -  0.00e+00 0.00e+00   0
   1  1.8985022e+00 0.00e+00 2.22e-01  -1.7 4.48e+01    -  1.00e+00 3.12e-02f  6
   2  1.0002106e+00 0.00e+00 1.09e-02  -1.7 3.22e+00    -  1.00e+00 1.25e-01f  4
   3  1.0000000e+00 0.00e+00 9.57e-06  -3.8 5.33e-03    -  1.00e+00 1.00e+00f  1
   4  1.0000000e+00 0.00e+00 6.05e-15  -8.6 4.56e-06    -  1.00e+00 1.00e+00f  1

Number of Iterations....: 4

                                   (scaled)                 (unscaled)
Objective...............:   1.0000000000000007e+00    1.0000000000000007e+00
Dual infeasibility......:   6.0507154842071024e-15    6.0507154842071024e-15
Constraint violation....:   0.0000000000000000e+00    0.0000000000000000e+00
Variable bound violation:   0.0000000000000000e+00    0.0000000000000000e+00
Complementarity.........:   0.0000000000000000e+00    0.0000000000000000e+00
Overall NLP error.......:   6.0507154842071024e-15    6.0507154842071024e-15


Number of objective function evaluations             = 21
Number of objective gradient evaluations             = 5
Number of equality constraint evaluations            = 0
Number of inequality constraint evaluations          = 0
Number of equality constraint Jacobian evaluations   = 0
Number of inequality constraint Jacobian evaluations = 0
Number of Lagrangian Hessian evaluations             = 4
Total seconds in IPOPT                               = 0.005

EXIT: Optimal Solution Found.
 
Ipopt 3.14.11: Optimal Solution Found
